c 
c G(k,n,p) graph
c graph gen seed     : 1564
c number of vertices : 80
c max number of edges: 1600
c number of classes  : 2
c edge density       : 0.300000
c edge probability   : 0.600000
c data structure     : dense
c
c           Graph Stats
c number of vertices  : 80
c nonisolated vertices: 80
c number of edges     : 943
c edge density        : 0.298418
c max degree          : 30
c avg degree          : 23.57
c min degree          : 15
p col 80 943
e 1 15
e 1 16
e 1 19
e 1 23
e 1 28
e 1 29
e 1 33
e 1 35
e 1 38
e 1 40
e 1 44
e 1 46
e 1 47
e 1 52
e 1 59
e 1 61
e 1 63
e 1 65
e 1 68
e 1 71
e 1 73
e 1 75
e 1 78
e 2 9
e 2 14
e 2 15
e 2 16
e 2 24
e 2 28
e 2 29
e 2 38
e 2 41
e 2 43
e 2 44
e 2 46
e 2 51
e 2 59
e 2 61
e 2 64
e 2 65
e 2 67
e 2 68
e 2 69
e 2 70
e 2 73
e 2 75
e 2 78
e 3 6
e 3 9
e 3 14
e 3 15
e 3 16
e 3 19
e 3 23
e 3 24
e 3 28
e 3 29
e 3 33
e 3 35
e 3 38
e 3 40
e 3 41
e 3 43
e 3 45
e 3 46
e 3 47
e 3 52
e 3 59
e 3 63
e 3 64
e 3 68
e 3 73
e 3 75
e 3 77
e 3 80
e 4 14
e 4 23
e 4 28
e 4 29
e 4 33
e 4 35
e 4 40
e 4 43
e 4 45
e 4 52
e 4 61
e 4 63
e 4 64
e 4 68
e 4 69
e 4 70
e 4 71
e 4 75
e 4 77
e 4 78
e 4 80
e 5 6
e 5 9
e 5 15
e 5 16
e 5 19
e 5 33
e 5 38
e 5 40
e 5 43
e 5 44
e 5 45
e 5 47
e 5 52
e 5 59
e 5 61
e 5 63
e 5 65
e 5 67
e 5 68
e 5 71
e 5 73
e 5 75
e 5 77
e 5 78
e 6 7
e 6 10
e 6 13
e 6 17
e 6 21
e 6 27
e 6 30
e 6 31
e 6 36
e 6 39
e 6 48
e 6 49
e 6 50
e 6 55
e 6 62
e 6 74
e 6 76
e 6 79
e 7 9
e 7 15
e 7 16
e 7 23
e 7 29
e 7 33
e 7 38
e 7 40
e 7 43
e 7 44
e 7 45
e 7 46
e 7 52
e 7 59
e 7 61
e 7 64
e 7 68
e 7 69
e 7 73
e 7 75
e 7 80
e 8 9
e 8 15
e 8 16
e 8 19
e 8 23
e 8 24
e 8 28
e 8 33
e 8 41
e 8 43
e 8 44
e 8 45
e 8 51
e 8 59
e 8 61
e 8 65
e 8 67
e 8 70
e 8 73
e 8 77
e 8 78
e 9 10
e 9 17
e 9 22
e 9 30
e 9 31
e 9 34
e 9 36
e 9 37
e 9 39
e 9 48
e 9 49
e 9 50
e 9 54
e 9 56
e 9 58
e 9 60
e 9 76
e 9 79
e 10 14
e 10 16
e 10 23
e 10 24
e 10 28
e 10 29
e 10 35
e 10 38
e 10 40
e 10 41
e 10 44
e 10 45
e 10 46
e 10 51
e 10 52
e 10 59
e 10 68
e 10 69
e 10 70
e 10 71
e 10 73
e 10 75
e 10 78
e 11 14
e 11 15
e 11 16
e 11 28
e 11 33
e 11 38
e 11 41
e 11 43
e 11 44
e 11 45
e 11 47
e 11 51
e 11 59
e 11 61
e 11 63
e 11 64
e 11 67
e 11 69
e 11 70
e 11 75
e 11 78
e 11 80
e 12 14
e 12 15
e 12 24
e 12 28
e 12 33
e 12 35
e 12 41
e 12 43
e 12 46
e 12 59
e 12 61
e 12 65
e 12 69
e 12 71
e 12 73
e 12 75
e 13 14
e 13 15
e 13 16
e 13 23
e 13 29
e 13 33
e 13 38
e 13 41
e 13 44
e 13 45
e 13 46
e 13 47
e 13 59
e 13 61
e 13 64
e 13 65
e 13 67
e 13 69
e 13 70
e 13 71
e 13 73
e 13 75
e 13 78
e 14 17
e 14 22
e 14 25
e 14 30
e 14 36
e 14 37
e 14 39
e 14 42
e 14 48
e 14 50
e 14 53
e 14 54
e 14 55
e 14 57
e 14 60
e 14 62
e 14 66
e 14 74
e 14 79
e 15 17
e 15 20
e 15 22
e 15 25
e 15 31
e 15 34
e 15 36
e 15 37
e 15 39
e 15 49
e 15 50
e 15 57
e 15 58
e 15 60
e 15 62
e 15 66
e 15 72
e 15 79
e 16 18
e 16 22
e 16 26
e 16 27
e 16 31
e 16 32
e 16 36
e 16 39
e 16 42
e 16 48
e 16 53
e 16 54
e 16 56
e 16 62
e 16 76
e 17 19
e 17 23
e 17 24
e 17 28
e 17 29
e 17 33
e 17 35
e 17 40
e 17 41
e 17 44
e 17 51
e 17 63
e 17 64
e 17 65
e 17 67
e 17 73
e 17 75
e 17 80
e 18 19
e 18 23
e 18 24
e 18 28
e 18 29
e 18 38
e 18 41
e 18 43
e 18 44
e 18 45
e 18 46
e 18 47
e 18 52
e 18 64
e 18 65
e 18 67
e 18 70
e 18 71
e 18 73
e 18 78
e 19 21
e 19 22
e 19 25
e 19 26
e 19 27
e 19 30
e 19 31
e 19 32
e 19 34
e 19 37
e 19 39
e 19 48
e 19 49
e 19 50
e 19 54
e 19 55
e 19 56
e 19 58
e 19 60
e 19 62
e 19 66
e 19 74
e 19 76
e 19 79
e 20 23
e 20 24
e 20 35
e 20 40
e 20 41
e 20 43
e 20 46
e 20 47
e 20 52
e 20 59
e 20 61
e 20 63
e 20 65
e 20 68
e 20 69
e 20 71
e 20 73
e 20 75
e 21 23
e 21 24
e 21 28
e 21 33
e 21 35
e 21 41
e 21 43
e 21 44
e 21 45
e 21 47
e 21 51
e 21 64
e 21 65
e 21 67
e 21 68
e 21 69
e 21 75
e 21 77
e 21 78
e 22 24
e 22 28
e 22 29
e 22 41
e 22 44
e 22 45
e 22 46
e 22 59
e 22 63
e 22 65
e 22 70
e 22 71
e 22 73
e 22 77
e 22 78
e 22 80
e 23 25
e 23 26
e 23 31
e 23 34
e 23 36
e 23 37
e 23 42
e 23 50
e 23 53
e 23 54
e 23 58
e 23 60
e 23 66
e 23 74
e 23 76
e 23 79
e 24 26
e 24 27
e 24 30
e 24 31
e 24 32
e 24 36
e 24 37
e 24 42
e 24 48
e 24 49
e 24 50
e 24 54
e 24 56
e 24 58
e 24 74
e 24 76
e 24 79
e 25 38
e 25 41
e 25 43
e 25 44
e 25 46
e 25 47
e 25 51
e 25 59
e 25 69
e 25 77
e 25 80
e 26 35
e 26 38
e 26 40
e 26 41
e 26 43
e 26 44
e 26 45
e 26 47
e 26 51
e 26 59
e 26 63
e 26 65
e 26 67
e 26 68
e 26 69
e 26 71
e 26 75
e 26 77
e 26 78
e 26 80
e 27 29
e 27 33
e 27 35
e 27 38
e 27 40
e 27 41
e 27 44
e 27 51
e 27 59
e 27 64
e 27 67
e 27 68
e 27 70
e 27 71
e 27 75
e 27 77
e 27 78
e 27 80
e 28 34
e 28 36
e 28 37
e 28 39
e 28 42
e 28 49
e 28 55
e 28 56
e 28 57
e 28 58
e 28 66
e 28 72
e 28 74
e 28 76
e 28 79
e 29 30
e 29 31
e 29 32
e 29 34
e 29 37
e 29 49
e 29 50
e 29 53
e 29 54
e 29 57
e 29 58
e 29 60
e 29 66
e 29 72
e 29 74
e 29 76
e 29 79
e 30 35
e 30 43
e 30 44
e 30 45
e 30 47
e 30 61
e 30 63
e 30 64
e 30 65
e 30 67
e 30 70
e 30 71
e 30 73
e 30 77
e 31 35
e 31 38
e 31 41
e 31 43
e 31 46
e 31 47
e 31 51
e 31 61
e 31 63
e 31 65
e 31 67
e 31 68
e 31 70
e 31 73
e 32 35
e 32 38
e 32 40
e 32 41
e 32 43
e 32 46
e 32 47
e 32 59
e 32 61
e 32 67
e 32 69
e 32 70
e 32 71
e 32 75
e 32 78
e 32 80
e 33 36
e 33 37
e 33 49
e 33 50
e 33 55
e 33 56
e 33 57
e 33 58
e 33 72
e 33 74
e 33 79
e 34 35
e 34 41
e 34 43
e 34 46
e 34 51
e 34 52
e 34 61
e 34 63
e 34 64
e 34 65
e 34 67
e 34 68
e 34 69
e 34 73
e 34 78
e 35 36
e 35 37
e 35 48
e 35 49
e 35 50
e 35 58
e 35 60
e 35 62
e 35 76
e 36 38
e 36 40
e 36 44
e 36 47
e 36 51
e 36 59
e 36 61
e 36 64
e 36 68
e 36 69
e 36 71
e 36 75
e 36 77
e 36 78
e 36 80
e 37 38
e 37 45
e 37 47
e 37 51
e 37 52
e 37 59
e 37 64
e 37 65
e 37 67
e 37 69
e 37 71
e 37 73
e 37 75
e 37 77
e 37 80
e 38 39
e 38 48
e 38 49
e 38 50
e 38 53
e 38 54
e 38 55
e 38 56
e 38 58
e 38 60
e 38 62
e 38 66
e 38 76
e 38 79
e 39 43
e 39 61
e 39 63
e 39 64
e 39 65
e 39 67
e 39 71
e 39 73
e 39 78
e 40 49
e 40 53
e 40 55
e 40 57
e 40 58
e 40 72
e 40 76
e 40 79
e 41 42
e 41 49
e 41 50
e 41 53
e 41 54
e 41 57
e 41 60
e 41 72
e 41 74
e 41 79
e 42 43
e 42 44
e 42 45
e 42 47
e 42 63
e 42 64
e 42 68
e 42 69
e 42 73
e 42 75
e 42 77
e 42 78
e 43 48
e 43 54
e 43 56
e 43 57
e 43 60
e 43 62
e 43 66
e 43 72
e 43 74
e 43 79
e 44 49
e 44 50
e 44 53
e 44 55
e 44 60
e 44 62
e 44 74
e 44 79
e 45 48
e 45 49
e 45 53
e 45 55
e 45 56
e 45 58
e 45 60
e 45 62
e 45 74
e 46 53
e 46 55
e 46 57
e 46 62
e 46 74
e 46 76
e 46 79
e 47 48
e 47 50
e 47 55
e 47 56
e 47 57
e 47 62
e 47 66
e 47 72
e 47 74
e 47 76
e 48 51
e 48 59
e 48 70
e 48 71
e 48 73
e 48 75
e 48 80
e 49 51
e 49 52
e 49 65
e 49 67
e 49 68
e 49 69
e 49 70
e 49 73
e 49 77
e 49 80
e 50 51
e 50 61
e 50 63
e 50 65
e 50 67
e 50 69
e 50 70
e 50 71
e 50 78
e 51 53
e 51 54
e 51 55
e 51 57
e 51 66
e 51 76
e 51 79
e 52 53
e 52 54
e 52 55
e 52 58
e 52 60
e 52 66
e 52 72
e 52 74
e 52 76
e 53 65
e 53 68
e 53 69
e 53 70
e 53 71
e 53 75
e 53 78
e 53 80
e 54 59
e 54 61
e 54 63
e 54 65
e 54 67
e 54 68
e 54 70
e 54 75
e 54 77
e 54 80
e 55 61
e 55 67
e 55 68
e 55 69
e 55 71
e 55 77
e 55 78
e 55 80
e 56 59
e 56 61
e 56 63
e 56 65
e 56 67
e 56 68
e 56 69
e 56 70
e 56 71
e 56 73
e 56 75
e 56 77
e 56 78
e 56 80
e 57 61
e 57 63
e 57 64
e 57 67
e 57 68
e 57 69
e 57 71
e 57 73
e 57 77
e 57 78
e 57 80
e 58 59
e 58 61
e 58 65
e 58 68
e 58 69
e 58 70
e 58 71
e 58 78
e 59 60
e 59 62
e 59 66
e 59 74
e 59 76
e 59 79
e 60 63
e 60 64
e 60 65
e 60 68
e 60 70
e 60 73
e 60 75
e 60 78
e 61 62
e 61 66
e 61 74
e 62 64
e 62 68
e 62 70
e 62 71
e 62 73
e 62 77
e 62 80
e 63 66
e 63 72
e 63 74
e 63 76
e 63 79
e 64 66
e 64 74
e 64 76
e 64 79
e 65 72
e 66 67
e 66 68
e 66 69
e 66 70
e 66 71
e 66 73
e 66 75
e 66 77
e 66 80
e 67 72
e 67 74
e 67 76
e 67 79
e 69 72
e 69 74
e 69 76
e 69 79
e 70 72
e 70 74
e 70 76
e 70 79
e 71 72
e 71 74
e 71 79
e 72 73
e 72 75
e 72 78
e 72 80
e 73 74
e 73 76
e 74 75
e 74 77
e 74 78
e 74 80
e 75 76
e 76 77
e 77 79
e 78 79
e 79 80
